50
    93    57     8    11    40    54    52    80    17    39    69    14     8    47    51    19    36    77    77    14    65    94    21    34   100    29    44    30    86    76     1    69    10   100    34    32    98    26    79    18    17    48    61    40    75    25    94    26    22    81
     9     2     4     3     7     6     9     7     6     7     4    10    10     8     6     6     3     2     7     5     4     1     6     1     2     9     1    10     9     6     5     8     7     5     1     1     5     7     6     1     9     3     6     7     1     3     3     9     3     9
   865   830     0     0     0  1050     0   955     0  1009   891     0   589   801    96     0     0  1073  1161   111   762   861     0    18     0     0     0   519   651     0   622   966     0     0     0    29     0     0   912   121   991  1022  1173  1028   714     0     0     0     0    98
